p wcnf 345 1765 1064
75 1 0
279 2 0
409 3 0
65 4 0
235 5 0
1064 -1 -14 15 0
1064 -1 -15 16 0
1064 -1 -16 17 0
1064 -1 -17 18 0
1064 -1 -18 19 0
1064 -1 -19 20 0
1064 -1 -20 21 0
1064 -1 -21 22 0
1064 -1 -22 23 0
1064 -1 -23 24 0
1064 -1 -24 25 0
1064 -1 -25 26 0
1064 -1 -26 27 0
1064 -1 -27 28 0
1064 -1 -28 29 0
1064 -1 -29 30 0
1064 -1 -30 31 0
1064 -1 -31 32 0
1064 -1 -32 33 0
1064 -1 -33 34 0
1064 -1 -34 35 0
1064 -1 -35 36 0
1064 -1 -36 37 0
1064 -1 -37 38 0
1064 -1 -38 39 0
1064 -1 -39 40 0
1064 -1 -40 41 0
1064 -1 -41 42 0
1064 -1 -42 43 0
1064 -1 -44 45 0
1064 -1 -45 46 0
1064 -1 -46 47 0
1064 -1 -47 48 0
1064 -1 -48 49 0
1064 -1 -49 50 0
1064 -1 -50 51 0
1064 -1 -51 52 0
1064 -1 -52 53 0
1064 -1 -53 54 0
1064 -1 -54 55 0
1064 -1 -55 56 0
1064 -1 -56 57 0
1064 -1 -57 58 0
1064 -1 -58 59 0
1064 -1 -59 60 0
1064 -1 -60 61 0
1064 -1 -61 62 0
1064 -1 -62 63 0
1064 -1 -63 64 0
1064 -1 -64 65 0
1064 -1 -65 66 0
1064 -1 -66 67 0
1064 -1 -67 68 0
1064 -1 -68 69 0
1064 -1 -69 70 0
1064 -1 -70 71 0
1064 -1 -71 72 0
1064 -1 -72 73 0
1064 -2 -82 83 0
1064 -2 -83 84 0
1064 -2 -84 85 0
1064 -2 -85 86 0
1064 -2 -86 87 0
1064 -2 -87 88 0
1064 -2 -88 89 0
1064 -2 -89 90 0
1064 -2 -90 91 0
1064 -2 -91 92 0
1064 -2 -92 93 0
1064 -2 -93 94 0
1064 -2 -94 95 0
1064 -2 -95 96 0
1064 -2 -96 97 0
1064 -2 -97 98 0
1064 -2 -98 99 0
1064 -2 -99 100 0
1064 -2 -100 101 0
1064 -2 -101 102 0
1064 -2 -102 103 0
1064 -2 -103 104 0
1064 -2 -104 105 0
1064 -2 -105 106 0
1064 -2 -106 107 0
1064 -2 -107 108 0
1064 -2 -108 109 0
1064 -2 -109 110 0
1064 -2 -110 111 0
1064 -2 -112 113 0
1064 -2 -113 114 0
1064 -2 -114 115 0
1064 -2 -115 116 0
1064 -2 -116 117 0
1064 -2 -117 118 0
1064 -2 -118 119 0
1064 -2 -119 120 0
1064 -2 -120 121 0
1064 -2 -121 122 0
1064 -2 -122 123 0
1064 -2 -123 124 0
1064 -2 -124 125 0
1064 -2 -125 126 0
1064 -2 -126 127 0
1064 -2 -127 128 0
1064 -2 -128 129 0
1064 -2 -129 130 0
1064 -2 -130 131 0
1064 -2 -131 132 0
1064 -2 -132 133 0
1064 -2 -133 134 0
1064 -2 -134 135 0
1064 -2 -135 136 0
1064 -2 -136 137 0
1064 -2 -137 138 0
1064 -2 -138 139 0
1064 -2 -139 140 0
1064 -2 -140 141 0
1064 -3 -150 151 0
1064 -3 -151 152 0
1064 -3 -152 153 0
1064 -3 -153 154 0
1064 -3 -154 155 0
1064 -3 -155 156 0
1064 -3 -156 157 0
1064 -3 -157 158 0
1064 -3 -158 159 0
1064 -3 -159 160 0
1064 -3 -160 161 0
1064 -3 -161 162 0
1064 -3 -162 163 0
1064 -3 -163 164 0
1064 -3 -164 165 0
1064 -3 -165 166 0
1064 -3 -166 167 0
1064 -3 -167 168 0
1064 -3 -168 169 0
1064 -3 -169 170 0
1064 -3 -170 171 0
1064 -3 -171 172 0
1064 -3 -172 173 0
1064 -3 -173 174 0
1064 -3 -174 175 0
1064 -3 -175 176 0
1064 -3 -176 177 0
1064 -3 -177 178 0
1064 -3 -178 179 0
1064 -3 -180 181 0
1064 -3 -181 182 0
1064 -3 -182 183 0
1064 -3 -183 184 0
1064 -3 -184 185 0
1064 -3 -185 186 0
1064 -3 -186 187 0
1064 -3 -187 188 0
1064 -3 -188 189 0
1064 -3 -189 190 0
1064 -3 -190 191 0
1064 -3 -191 192 0
1064 -3 -192 193 0
1064 -3 -193 194 0
1064 -3 -194 195 0
1064 -3 -195 196 0
1064 -3 -196 197 0
1064 -3 -197 198 0
1064 -3 -198 199 0
1064 -3 -199 200 0
1064 -3 -200 201 0
1064 -3 -201 202 0
1064 -3 -202 203 0
1064 -3 -203 204 0
1064 -3 -204 205 0
1064 -3 -205 206 0
1064 -3 -206 207 0
1064 -3 -207 208 0
1064 -3 -208 209 0
1064 -4 -218 219 0
1064 -4 -219 220 0
1064 -4 -220 221 0
1064 -4 -221 222 0
1064 -4 -222 223 0
1064 -4 -223 224 0
1064 -4 -224 225 0
1064 -4 -225 226 0
1064 -4 -226 227 0
1064 -4 -227 228 0
1064 -4 -228 229 0
1064 -4 -229 230 0
1064 -4 -230 231 0
1064 -4 -231 232 0
1064 -4 -232 233 0
1064 -4 -233 234 0
1064 -4 -234 235 0
1064 -4 -235 236 0
1064 -4 -236 237 0
1064 -4 -237 238 0
1064 -4 -238 239 0
1064 -4 -239 240 0
1064 -4 -240 241 0
1064 -4 -241 242 0
1064 -4 -242 243 0
1064 -4 -243 244 0
1064 -4 -244 245 0
1064 -4 -245 246 0
1064 -4 -246 247 0
1064 -4 -248 249 0
1064 -4 -249 250 0
1064 -4 -250 251 0
1064 -4 -251 252 0
1064 -4 -252 253 0
1064 -4 -253 254 0
1064 -4 -254 255 0
1064 -4 -255 256 0
1064 -4 -256 257 0
1064 -4 -257 258 0
1064 -4 -258 259 0
1064 -4 -259 260 0
1064 -4 -260 261 0
1064 -4 -261 262 0
1064 -4 -262 263 0
1064 -4 -263 264 0
1064 -4 -264 265 0
1064 -4 -265 266 0
1064 -4 -266 267 0
1064 -4 -267 268 0
1064 -4 -268 269 0
1064 -4 -269 270 0
1064 -4 -270 271 0
1064 -4 -271 272 0
1064 -4 -272 273 0
1064 -4 -273 274 0
1064 -4 -274 275 0
1064 -4 -275 276 0
1064 -4 -276 277 0
1064 -5 -286 287 0
1064 -5 -287 288 0
1064 -5 -288 289 0
1064 -5 -289 290 0
1064 -5 -290 291 0
1064 -5 -291 292 0
1064 -5 -292 293 0
1064 -5 -293 294 0
1064 -5 -294 295 0
1064 -5 -295 296 0
1064 -5 -296 297 0
1064 -5 -297 298 0
1064 -5 -298 299 0
1064 -5 -299 300 0
1064 -5 -300 301 0
1064 -5 -301 302 0
1064 -5 -302 303 0
1064 -5 -303 304 0
1064 -5 -304 305 0
1064 -5 -305 306 0
1064 -5 -306 307 0
1064 -5 -307 308 0
1064 -5 -308 309 0
1064 -5 -309 310 0
1064 -5 -310 311 0
1064 -5 -311 312 0
1064 -5 -312 313 0
1064 -5 -313 314 0
1064 -5 -314 315 0
1064 -5 -316 317 0
1064 -5 -317 318 0
1064 -5 -318 319 0
1064 -5 -319 320 0
1064 -5 -320 321 0
1064 -5 -321 322 0
1064 -5 -322 323 0
1064 -5 -323 324 0
1064 -5 -324 325 0
1064 -5 -325 326 0
1064 -5 -326 327 0
1064 -5 -327 328 0
1064 -5 -328 329 0
1064 -5 -329 330 0
1064 -5 -330 331 0
1064 -5 -331 332 0
1064 -5 -332 333 0
1064 -5 -333 334 0
1064 -5 -334 335 0
1064 -5 -335 336 0
1064 -5 -336 337 0
1064 -5 -337 338 0
1064 -5 -338 339 0
1064 -5 -339 340 0
1064 -5 -340 341 0
1064 -5 -341 342 0
1064 -5 -342 343 0
1064 -5 -343 344 0
1064 -5 -344 345 0
1064 -1 -2 6 74 0
1064 -1 -2 -6 -82 0
1064 -1 -2 -74 -14 0
1064 -1 -2 -74 -15 0
1064 -1 -2 -74 -16 0
1064 -1 -2 -74 -17 0
1064 -1 -2 -74 -18 0
1064 -1 -2 -74 -19 0
1064 -1 -2 -74 -20 0
1064 -1 -2 -74 -21 0
1064 -1 -2 -74 -22 0
1064 -1 -2 -74 -23 0
1064 -1 -2 -74 -24 0
1064 -1 -2 -74 -25 0
1064 -1 -2 -74 -26 0
1064 -1 -2 -74 -27 0
1064 -1 -2 -74 -28 0
1064 -1 -2 -74 -29 0
1064 -1 -2 -74 -30 0
1064 -1 -2 -74 -31 0
1064 -1 -2 -74 -32 0
1064 -1 -2 -74 -33 0
1064 -1 -2 -74 -34 0
1064 -1 -2 -74 -35 0
1064 -1 -2 -74 -36 0
1064 -1 -2 -74 -37 0
1064 -1 -2 -74 -38 0
1064 -1 -2 -6 14 -83 0
1064 -1 -2 -74 82 -39 0
1064 -1 -2 -6 15 -84 0
1064 -1 -2 -74 83 -40 0
1064 -1 -2 -6 16 -85 0
1064 -1 -2 -74 84 -41 0
1064 -1 -2 -6 17 -86 0
1064 -1 -2 -74 85 -42 0
1064 -1 -2 -6 18 -87 0
1064 -1 -2 -74 86 -43 0
1064 -1 -2 -6 19 -88 0
1064 -1 -2 -6 20 -89 0
1064 -1 -2 -6 21 -90 0
1064 -1 -2 -6 22 -91 0
1064 -1 -2 -6 23 -92 0
1064 -1 -2 -6 24 -93 0
1064 -1 -2 -6 25 -94 0
1064 -1 -2 -6 26 -95 0
1064 -1 -2 -6 27 -96 0
1064 -1 -2 -6 28 -97 0
1064 -1 -2 -6 29 -98 0
1064 -1 -2 -6 30 -99 0
1064 -1 -2 -6 31 -100 0
1064 -1 -2 -6 32 -101 0
1064 -1 -2 -6 33 -102 0
1064 -1 -2 -6 34 -103 0
1064 -1 -2 -6 35 -104 0
1064 -1 -2 -6 36 -105 0
1064 -1 -2 -6 37 -106 0
1064 -1 -2 -6 38 -107 0
1064 -1 -2 -6 39 -108 0
1064 -1 -2 -6 40 -109 0
1064 -1 -2 -6 41 -110 0
1064 -1 -2 -6 42 -111 0
1064 -1 -3 8 142 0
1064 -1 -3 -8 -150 0
1064 -1 -3 -142 -14 0
1064 -1 -3 -142 -15 0
1064 -1 -3 -142 -16 0
1064 -1 -3 -142 -17 0
1064 -1 -3 -142 -18 0
1064 -1 -3 -142 -19 0
1064 -1 -3 -142 -20 0
1064 -1 -3 -142 -21 0
1064 -1 -3 -142 -22 0
1064 -1 -3 -142 -23 0
1064 -1 -3 -142 -24 0
1064 -1 -3 -142 -25 0
1064 -1 -3 -142 -26 0
1064 -1 -3 -142 -27 0
1064 -1 -3 -142 -28 0
1064 -1 -3 -142 -29 0
1064 -1 -3 -142 -30 0
1064 -1 -3 -142 -31 0
1064 -1 -3 -142 -32 0
1064 -1 -3 -142 -33 0
1064 -1 -3 -142 -34 0
1064 -1 -3 -142 -35 0
1064 -1 -3 -142 -36 0
1064 -1 -3 -142 -37 0
1064 -1 -3 -142 -38 0
1064 -1 -3 -142 -39 0
1064 -1 -3 -142 -40 0
1064 -1 -3 -8 14 -151 0
1064 -1 -3 -142 150 -41 0
1064 -1 -3 -8 15 -152 0
1064 -1 -3 -142 151 -42 0
1064 -1 -3 -8 16 -153 0
1064 -1 -3 -142 152 -43 0
1064 -1 -3 -8 17 -154 0
1064 -1 -3 -8 18 -155 0
1064 -1 -3 -8 19 -156 0
1064 -1 -3 -8 20 -157 0
1064 -1 -3 -8 21 -158 0
1064 -1 -3 -8 22 -159 0
1064 -1 -3 -8 23 -160 0
1064 -1 -3 -8 24 -161 0
1064 -1 -3 -8 25 -162 0
1064 -1 -3 -8 26 -163 0
1064 -1 -3 -8 27 -164 0
1064 -1 -3 -8 28 -165 0
1064 -1 -3 -8 29 -166 0
1064 -1 -3 -8 30 -167 0
1064 -1 -3 -8 31 -168 0
1064 -1 -3 -8 32 -169 0
1064 -1 -3 -8 33 -170 0
1064 -1 -3 -8 34 -171 0
1064 -1 -3 -8 35 -172 0
1064 -1 -3 -8 36 -173 0
1064 -1 -3 -8 37 -174 0
1064 -1 -3 -8 38 -175 0
1064 -1 -3 -8 39 -176 0
1064 -1 -3 -8 40 -177 0
1064 -1 -3 -8 41 -178 0
1064 -1 -3 -8 42 -179 0
1064 -1 -4 11 211 0
1064 -1 -4 -11 -248 0
1064 -1 -4 -11 -249 0
1064 -1 -4 -11 -250 0
1064 -1 -4 -11 -251 0
1064 -1 -4 -11 -252 0
1064 -1 -4 -11 -253 0
1064 -1 -4 -11 -254 0
1064 -1 -4 -11 -255 0
1064 -1 -4 -11 -256 0
1064 -1 -4 -11 -257 0
1064 -1 -4 -11 -258 0
1064 -1 -4 -11 -259 0
1064 -1 -4 -11 -260 0
1064 -1 -4 -11 -261 0
1064 -1 -4 -11 -262 0
1064 -1 -4 -11 -263 0
1064 -1 -4 -11 -264 0
1064 -1 -4 -11 -265 0
1064 -1 -4 -11 -266 0
1064 -1 -4 -11 -267 0
1064 -1 -4 -11 -268 0
1064 -1 -4 -11 -269 0
1064 -1 -4 -11 -270 0
1064 -1 -4 -11 -271 0
1064 -1 -4 -11 -272 0
1064 -1 -4 -11 -273 0
1064 -1 -4 -11 -274 0
1064 -1 -4 -11 -275 0
1064 -1 -4 -11 -276 0
1064 -1 -4 -11 -277 0
1064 -1 -4 -211 -44 0
1064 -1 -4 -211 -45 0
1064 -1 -4 10 210 0
1064 -1 -4 -10 -218 0
1064 -1 -4 -210 -14 0
1064 -1 -4 -210 -15 0
1064 -1 -4 -210 -16 0
1064 -1 -4 -210 -17 0
1064 -1 -4 -210 -18 0
1064 -1 -4 -210 -19 0
1064 -1 -4 -210 -20 0
1064 -1 -4 -210 -21 0
1064 -1 -4 -210 -22 0
1064 -1 -4 -210 -23 0
1064 -1 -4 -210 -24 0
1064 -1 -4 -210 -25 0
1064 -1 -4 -210 -26 0
1064 -1 -4 -210 -27 0
1064 -1 -4 -210 -28 0
1064 -1 -4 -210 -29 0
1064 -1 -4 -210 -30 0
1064 -1 -4 -210 -31 0
1064 -1 -4 -210 -32 0
1064 -1 -4 -210 -33 0
1064 -1 -4 -210 -34 0
1064 -1 -4 -210 -35 0
1064 -1 -4 -210 -36 0
1064 -1 -4 -210 -37 0
1064 -1 -4 -210 -38 0
1064 -1 -4 -210 -39 0
1064 -1 -4 -210 -40 0
1064 -1 -4 -210 -41 0
1064 -1 -4 -210 -42 0
1064 -1 -4 -210 -43 0
1064 -1 -4 -10 14 -219 0
1064 -1 -4 -10 15 -220 0
1064 -1 -4 -10 16 -221 0
1064 -1 -4 -10 17 -222 0
1064 -1 -4 -10 18 -223 0
1064 -1 -4 -10 19 -224 0
1064 -1 -4 -10 20 -225 0
1064 -1 -4 -10 21 -226 0
1064 -1 -4 -10 22 -227 0
1064 -1 -4 -10 23 -228 0
1064 -1 -4 -10 24 -229 0
1064 -1 -4 -10 25 -230 0
1064 -1 -4 -10 26 -231 0
1064 -1 -4 -10 27 -232 0
1064 -1 -4 -10 28 -233 0
1064 -1 -4 -10 29 -234 0
1064 -1 -4 -10 30 -235 0
1064 -1 -4 -10 31 -236 0
1064 -1 -4 -10 32 -237 0
1064 -1 -4 -10 33 -238 0
1064 -1 -4 -10 34 -239 0
1064 -1 -4 -10 35 -240 0
1064 -1 -4 -10 36 -241 0
1064 -1 -4 -10 37 -242 0
1064 -1 -4 -10 38 -243 0
1064 -1 -4 -10 39 -244 0
1064 -1 -4 -10 40 -245 0
1064 -1 -4 -10 41 -246 0
1064 -1 -4 -10 42 -247 0
1064 -1 -5 12 278 0
1064 -1 -5 -12 -286 0
1064 -1 -5 -278 -14 0
1064 -1 -5 -278 -15 0
1064 -1 -5 -278 -16 0
1064 -1 -5 -278 -17 0
1064 -1 -5 -278 -18 0
1064 -1 -5 -278 -19 0
1064 -1 -5 -278 -20 0
1064 -1 -5 -278 -21 0
1064 -1 -5 -278 -22 0
1064 -1 -5 -278 -23 0
1064 -1 -5 -278 -24 0
1064 -1 -5 -278 -25 0
1064 -1 -5 -278 -26 0
1064 -1 -5 -278 -27 0
1064 -1 -5 -278 -28 0
1064 -1 -5 -278 -29 0
1064 -1 -5 -278 -30 0
1064 -1 -5 -278 -31 0
1064 -1 -5 -278 -32 0
1064 -1 -5 -278 -33 0
1064 -1 -5 -278 -34 0
1064 -1 -5 -278 -35 0
1064 -1 -5 -278 -36 0
1064 -1 -5 -278 -37 0
1064 -1 -5 -278 -38 0
1064 -1 -5 -278 -39 0
1064 -1 -5 -12 14 -287 0
1064 -1 -5 -278 286 -40 0
1064 -1 -5 -12 15 -288 0
1064 -1 -5 -278 287 -41 0
1064 -1 -5 -12 16 -289 0
1064 -1 -5 -278 288 -42 0
1064 -1 -5 -12 17 -290 0
1064 -1 -5 -278 289 -43 0
1064 -1 -5 -12 18 -291 0
1064 -1 -5 -12 19 -292 0
1064 -1 -5 -12 20 -293 0
1064 -1 -5 -12 21 -294 0
1064 -1 -5 -12 22 -295 0
1064 -1 -5 -12 23 -296 0
1064 -1 -5 -12 24 -297 0
1064 -1 -5 -12 25 -298 0
1064 -1 -5 -12 26 -299 0
1064 -1 -5 -12 27 -300 0
1064 -1 -5 -12 28 -301 0
1064 -1 -5 -12 29 -302 0
1064 -1 -5 -12 30 -303 0
1064 -1 -5 -12 31 -304 0
1064 -1 -5 -12 32 -305 0
1064 -1 -5 -12 33 -306 0
1064 -1 -5 -12 34 -307 0
1064 -1 -5 -12 35 -308 0
1064 -1 -5 -12 36 -309 0
1064 -1 -5 -12 37 -310 0
1064 -1 -5 -12 38 -311 0
1064 -1 -5 -12 39 -312 0
1064 -1 -5 -12 40 -313 0
1064 -1 -5 -12 41 -314 0
1064 -1 -5 -12 42 -315 0
1064 -2 -3 77 145 0
1064 -2 -3 -77 -180 0
1064 -2 -3 -77 -181 0
1064 -2 -3 -77 -182 0
1064 -2 -3 -77 -183 0
1064 -2 -3 -77 -184 0
1064 -2 -3 -77 -185 0
1064 -2 -3 -77 -186 0
1064 -2 -3 -145 -112 0
1064 -2 -3 -145 -113 0
1064 -2 -3 -145 -114 0
1064 -2 -3 -145 -115 0
1064 -2 -3 -145 -116 0
1064 -2 -3 -145 -117 0
1064 -2 -3 -145 -118 0
1064 -2 -3 -145 -119 0
1064 -2 -3 -145 -120 0
1064 -2 -3 -77 112 -187 0
1064 -2 -3 -145 180 -121 0
1064 -2 -3 -77 113 -188 0
1064 -2 -3 -145 181 -122 0
1064 -2 -3 -77 114 -189 0
1064 -2 -3 -145 182 -123 0
1064 -2 -3 -77 115 -190 0
1064 -2 -3 -145 183 -124 0
1064 -2 -3 -77 116 -191 0
1064 -2 -3 -145 184 -125 0
1064 -2 -3 -77 117 -192 0
1064 -2 -3 -145 185 -126 0
1064 -2 -3 -77 118 -193 0
1064 -2 -3 -145 186 -127 0
1064 -2 -3 -77 119 -194 0
1064 -2 -3 -145 187 -128 0
1064 -2 -3 -77 120 -195 0
1064 -2 -3 -145 188 -129 0
1064 -2 -3 -77 121 -196 0
1064 -2 -3 -145 189 -130 0
1064 -2 -3 -77 122 -197 0
1064 -2 -3 -145 190 -131 0
1064 -2 -3 -77 123 -198 0
1064 -2 -3 -145 191 -132 0
1064 -2 -3 -77 124 -199 0
1064 -2 -3 -145 192 -133 0
1064 -2 -3 -77 125 -200 0
1064 -2 -3 -145 193 -134 0
1064 -2 -3 -77 126 -201 0
1064 -2 -3 -145 194 -135 0
1064 -2 -3 -77 127 -202 0
1064 -2 -3 -145 195 -136 0
1064 -2 -3 -77 128 -203 0
1064 -2 -3 -145 196 -137 0
1064 -2 -3 -77 129 -204 0
1064 -2 -3 -145 197 -138 0
1064 -2 -3 -77 130 -205 0
1064 -2 -3 -145 198 -139 0
1064 -2 -3 -77 131 -206 0
1064 -2 -3 -145 199 -140 0
1064 -2 -3 -77 132 -207 0
1064 -2 -3 -145 200 -141 0
1064 -2 -3 -77 133 -208 0
1064 -2 -3 -77 134 -209 0
1064 -2 -3 76 144 77 145 0
1064 -2 -3 -76 -150 0
1064 -2 -3 -76 -151 0
1064 -2 -3 -76 -152 0
1064 -2 -3 -76 -153 0
1064 -2 -3 -76 -154 0
1064 -2 -3 -76 -155 0
1064 -2 -3 -76 -156 0
1064 -2 -3 -76 -157 0
1064 -2 -3 -76 -158 0
1064 -2 -3 -76 -159 0
1064 -2 -3 -76 -160 0
1064 -2 -3 -76 -161 0
1064 -2 -3 -76 -162 0
1064 -2 -3 -76 -163 0
1064 -2 -3 -76 -164 0
1064 -2 -3 -76 -165 0
1064 -2 -3 -76 -166 0
1064 -2 -3 -76 -167 0
1064 -2 -3 -76 -168 0
1064 -2 -3 -76 -169 0
1064 -2 -3 -76 -170 0
1064 -2 -3 -76 -171 0
1064 -2 -3 -76 -172 0
1064 -2 -3 -76 -173 0
1064 -2 -3 -76 -174 0
1064 -2 -3 -144 -82 0
1064 -2 -3 -144 -83 0
1064 -2 -3 -144 -84 0
1064 -2 -3 -144 -85 0
1064 -2 -3 -144 -86 0
1064 -2 -3 -144 -87 0
1064 -2 -3 -144 -88 0
1064 -2 -3 -144 -89 0
1064 -2 -3 -144 -90 0
1064 -2 -3 -144 -91 0
1064 -2 -3 -144 -92 0
1064 -2 -3 -144 -93 0
1064 -2 -3 -144 -94 0
1064 -2 -3 -144 -95 0
1064 -2 -3 -144 -96 0
1064 -2 -3 -144 -97 0
1064 -2 -3 -144 -98 0
1064 -2 -3 -144 -99 0
1064 -2 -3 -144 -100 0
1064 -2 -3 -144 -101 0
1064 -2 -3 -144 -102 0
1064 -2 -3 -144 -103 0
1064 -2 -3 -144 -104 0
1064 -2 -3 -144 -105 0
1064 -2 -3 -144 -106 0
1064 -2 -3 -144 -107 0
1064 -2 -3 -144 -108 0
1064 -2 -3 -77 -180 0
1064 -2 -3 -77 -181 0
1064 -2 -3 -77 -182 0
1064 -2 -3 -77 -183 0
1064 -2 -3 -77 -184 0
1064 -2 -3 -77 -185 0
1064 -2 -3 -77 -186 0
1064 -2 -3 -145 -112 0
1064 -2 -3 -145 -113 0
1064 -2 -3 -145 -114 0
1064 -2 -3 -145 -115 0
1064 -2 -3 -145 -116 0
1064 -2 -3 -145 -117 0
1064 -2 -3 -145 -118 0
1064 -2 -3 -145 -119 0
1064 -2 -3 -145 -120 0
1064 -2 -3 -76 82 -175 0
1064 -2 -3 -144 150 -109 0
1064 -2 -3 -76 83 -176 0
1064 -2 -3 -144 151 -110 0
1064 -2 -3 -76 84 -177 0
1064 -2 -3 -144 152 -111 0
1064 -2 -3 -76 85 -178 0
1064 -2 -3 -76 86 -179 0
1064 -2 -3 -77 112 -187 0
1064 -2 -3 -145 180 -121 0
1064 -2 -3 -77 113 -188 0
1064 -2 -3 -145 181 -122 0
1064 -2 -3 -77 114 -189 0
1064 -2 -3 -145 182 -123 0
1064 -2 -3 -77 115 -190 0
1064 -2 -3 -145 183 -124 0
1064 -2 -3 -77 116 -191 0
1064 -2 -3 -145 184 -125 0
1064 -2 -3 -77 117 -192 0
1064 -2 -3 -145 185 -126 0
1064 -2 -3 -77 118 -193 0
1064 -2 -3 -145 186 -127 0
1064 -2 -3 -77 119 -194 0
1064 -2 -3 -145 187 -128 0
1064 -2 -3 -77 120 -195 0
1064 -2 -3 -145 188 -129 0
1064 -2 -3 -77 121 -196 0
1064 -2 -3 -145 189 -130 0
1064 -2 -3 -77 122 -197 0
1064 -2 -3 -145 190 -131 0
1064 -2 -3 -77 123 -198 0
1064 -2 -3 -145 191 -132 0
1064 -2 -3 -77 124 -199 0
1064 -2 -3 -145 192 -133 0
1064 -2 -3 -77 125 -200 0
1064 -2 -3 -145 193 -134 0
1064 -2 -3 -77 126 -201 0
1064 -2 -3 -145 194 -135 0
1064 -2 -3 -77 127 -202 0
1064 -2 -3 -145 195 -136 0
1064 -2 -3 -77 128 -203 0
1064 -2 -3 -145 196 -137 0
1064 -2 -3 -77 129 -204 0
1064 -2 -3 -145 197 -138 0
1064 -2 -3 -77 130 -205 0
1064 -2 -3 -145 198 -139 0
1064 -2 -3 -77 131 -206 0
1064 -2 -3 -145 199 -140 0
1064 -2 -3 -77 132 -207 0
1064 -2 -3 -145 200 -141 0
1064 -2 -3 -77 133 -208 0
1064 -2 -3 -77 134 -209 0
1064 -2 -4 79 213 0
1064 -2 -4 -79 -248 0
1064 -2 -4 -79 -249 0
1064 -2 -4 -79 -250 0
1064 -2 -4 -79 -251 0
1064 -2 -4 -79 -252 0
1064 -2 -4 -79 -253 0
1064 -2 -4 -79 -254 0
1064 -2 -4 -213 -112 0
1064 -2 -4 -213 -113 0
1064 -2 -4 -79 112 -255 0
1064 -2 -4 -213 248 -114 0
1064 -2 -4 -79 113 -256 0
1064 -2 -4 -213 249 -115 0
1064 -2 -4 -79 114 -257 0
1064 -2 -4 -213 250 -116 0
1064 -2 -4 -79 115 -258 0
1064 -2 -4 -213 251 -117 0
1064 -2 -4 -79 116 -259 0
1064 -2 -4 -213 252 -118 0
1064 -2 -4 -79 117 -260 0
1064 -2 -4 -213 253 -119 0
1064 -2 -4 -79 118 -261 0
1064 -2 -4 -213 254 -120 0
1064 -2 -4 -79 119 -262 0
1064 -2 -4 -213 255 -121 0
1064 -2 -4 -79 120 -263 0
1064 -2 -4 -213 256 -122 0
1064 -2 -4 -79 121 -264 0
1064 -2 -4 -213 257 -123 0
1064 -2 -4 -79 122 -265 0
1064 -2 -4 -213 258 -124 0
1064 -2 -4 -79 123 -266 0
1064 -2 -4 -213 259 -125 0
1064 -2 -4 -79 124 -267 0
1064 -2 -4 -213 260 -126 0
1064 -2 -4 -79 125 -268 0
1064 -2 -4 -213 261 -127 0
1064 -2 -4 -79 126 -269 0
1064 -2 -4 -213 262 -128 0
1064 -2 -4 -79 127 -270 0
1064 -2 -4 -213 263 -129 0
1064 -2 -4 -79 128 -271 0
1064 -2 -4 -213 264 -130 0
1064 -2 -4 -79 129 -272 0
1064 -2 -4 -213 265 -131 0
1064 -2 -4 -79 130 -273 0
1064 -2 -4 -213 266 -132 0
1064 -2 -4 -79 131 -274 0
1064 -2 -4 -213 267 -133 0
1064 -2 -4 -79 132 -275 0
1064 -2 -4 -213 268 -134 0
1064 -2 -4 -79 133 -276 0
1064 -2 -4 -213 269 -135 0
1064 -2 -4 -79 134 -277 0
1064 -2 -4 -213 270 -136 0
1064 -2 -4 78 212 79 213 0
1064 -2 -4 -78 -218 0
1064 -2 -4 -78 -219 0
1064 -2 -4 -78 -220 0
1064 -2 -4 -78 -221 0
1064 -2 -4 -78 -222 0
1064 -2 -4 -78 -223 0
1064 -2 -4 -78 -224 0
1064 -2 -4 -78 -225 0
1064 -2 -4 -78 -226 0
1064 -2 -4 -78 -227 0
1064 -2 -4 -78 -228 0
1064 -2 -4 -78 -229 0
1064 -2 -4 -78 -230 0
1064 -2 -4 -78 -231 0
1064 -2 -4 -78 -232 0
1064 -2 -4 -78 -233 0
1064 -2 -4 -78 -234 0
1064 -2 -4 -78 -235 0
1064 -2 -4 -78 -236 0
1064 -2 -4 -78 -237 0
1064 -2 -4 -78 -238 0
1064 -2 -4 -78 -239 0
1064 -2 -4 -78 -240 0
1064 -2 -4 -78 -241 0
1064 -2 -4 -78 -242 0
1064 -2 -4 -212 -82 0
1064 -2 -4 -212 -83 0
1064 -2 -4 -212 -84 0
1064 -2 -4 -212 -85 0
1064 -2 -4 -212 -86 0
1064 -2 -4 -212 -87 0
1064 -2 -4 -212 -88 0
1064 -2 -4 -212 -89 0
1064 -2 -4 -212 -90 0
1064 -2 -4 -212 -91 0
1064 -2 -4 -212 -92 0
1064 -2 -4 -212 -93 0
1064 -2 -4 -212 -94 0
1064 -2 -4 -212 -95 0
1064 -2 -4 -212 -96 0
1064 -2 -4 -212 -97 0
1064 -2 -4 -212 -98 0
1064 -2 -4 -212 -99 0
1064 -2 -4 -212 -100 0
1064 -2 -4 -212 -101 0
1064 -2 -4 -212 -102 0
1064 -2 -4 -212 -103 0
1064 -2 -4 -212 -104 0
1064 -2 -4 -212 -105 0
1064 -2 -4 -212 -106 0
1064 -2 -4 -212 -107 0
1064 -2 -4 -212 -108 0
1064 -2 -4 -212 -109 0
1064 -2 -4 -212 -110 0
1064 -2 -4 -212 -111 0
1064 -2 -4 -79 -248 0
1064 -2 -4 -79 -249 0
1064 -2 -4 -79 -250 0
1064 -2 -4 -79 -251 0
1064 -2 -4 -79 -252 0
1064 -2 -4 -79 -253 0
1064 -2 -4 -79 -254 0
1064 -2 -4 -213 -112 0
1064 -2 -4 -213 -113 0
1064 -2 -4 -78 82 -243 0
1064 -2 -4 -78 83 -244 0
1064 -2 -4 -78 84 -245 0
1064 -2 -4 -78 85 -246 0
1064 -2 -4 -78 86 -247 0
1064 -2 -4 -79 112 -255 0
1064 -2 -4 -213 248 -114 0
1064 -2 -4 -79 113 -256 0
1064 -2 -4 -213 249 -115 0
1064 -2 -4 -79 114 -257 0
1064 -2 -4 -213 250 -116 0
1064 -2 -4 -79 115 -258 0
1064 -2 -4 -213 251 -117 0
1064 -2 -4 -79 116 -259 0
1064 -2 -4 -213 252 -118 0
1064 -2 -4 -79 117 -260 0
1064 -2 -4 -213 253 -119 0
1064 -2 -4 -79 118 -261 0
1064 -2 -4 -213 254 -120 0
1064 -2 -4 -79 119 -262 0
1064 -2 -4 -213 255 -121 0
1064 -2 -4 -79 120 -263 0
1064 -2 -4 -213 256 -122 0
1064 -2 -4 -79 121 -264 0
1064 -2 -4 -213 257 -123 0
1064 -2 -4 -79 122 -265 0
1064 -2 -4 -213 258 -124 0
1064 -2 -4 -79 123 -266 0
1064 -2 -4 -213 259 -125 0
1064 -2 -4 -79 124 -267 0
1064 -2 -4 -213 260 -126 0
1064 -2 -4 -79 125 -268 0
1064 -2 -4 -213 261 -127 0
1064 -2 -4 -79 126 -269 0
1064 -2 -4 -213 262 -128 0
1064 -2 -4 -79 127 -270 0
1064 -2 -4 -213 263 -129 0
1064 -2 -4 -79 128 -271 0
1064 -2 -4 -213 264 -130 0
1064 -2 -4 -79 129 -272 0
1064 -2 -4 -213 265 -131 0
1064 -2 -4 -79 130 -273 0
1064 -2 -4 -213 266 -132 0
1064 -2 -4 -79 131 -274 0
1064 -2 -4 -213 267 -133 0
1064 -2 -4 -79 132 -275 0
1064 -2 -4 -213 268 -134 0
1064 -2 -4 -79 133 -276 0
1064 -2 -4 -213 269 -135 0
1064 -2 -4 -79 134 -277 0
1064 -2 -4 -213 270 -136 0
1064 -2 -5 81 281 0
1064 -2 -5 -81 -316 0
1064 -2 -5 -81 -317 0
1064 -2 -5 -81 -318 0
1064 -2 -5 -81 -319 0
1064 -2 -5 -81 -320 0
1064 -2 -5 -81 -321 0
1064 -2 -5 -81 -322 0
1064 -2 -5 -281 -112 0
1064 -2 -5 -281 -113 0
1064 -2 -5 -281 -114 0
1064 -2 -5 -281 -115 0
1064 -2 -5 -281 -116 0
1064 -2 -5 -281 -117 0
1064 -2 -5 -281 -118 0
1064 -2 -5 -81 112 -323 0
1064 -2 -5 -281 316 -119 0
1064 -2 -5 -81 113 -324 0
1064 -2 -5 -281 317 -120 0
1064 -2 -5 -81 114 -325 0
1064 -2 -5 -281 318 -121 0
1064 -2 -5 -81 115 -326 0
1064 -2 -5 -281 319 -122 0
1064 -2 -5 -81 116 -327 0
1064 -2 -5 -281 320 -123 0
1064 -2 -5 -81 117 -328 0
1064 -2 -5 -281 321 -124 0
1064 -2 -5 -81 118 -329 0
1064 -2 -5 -281 322 -125 0
1064 -2 -5 -81 119 -330 0
1064 -2 -5 -281 323 -126 0
1064 -2 -5 -81 120 -331 0
1064 -2 -5 -281 324 -127 0
1064 -2 -5 -81 121 -332 0
1064 -2 -5 -281 325 -128 0
1064 -2 -5 -81 122 -333 0
1064 -2 -5 -281 326 -129 0
1064 -2 -5 -81 123 -334 0
1064 -2 -5 -281 327 -130 0
1064 -2 -5 -81 124 -335 0
1064 -2 -5 -281 328 -131 0
1064 -2 -5 -81 125 -336 0
1064 -2 -5 -281 329 -132 0
1064 -2 -5 -81 126 -337 0
1064 -2 -5 -281 330 -133 0
1064 -2 -5 -81 127 -338 0
1064 -2 -5 -281 331 -134 0
1064 -2 -5 -81 128 -339 0
1064 -2 -5 -281 332 -135 0
1064 -2 -5 -81 129 -340 0
1064 -2 -5 -281 333 -136 0
1064 -2 -5 -81 130 -341 0
1064 -2 -5 -281 334 -137 0
1064 -2 -5 -81 131 -342 0
1064 -2 -5 -281 335 -138 0
1064 -2 -5 -81 132 -343 0
1064 -2 -5 -281 336 -139 0
1064 -2 -5 -81 133 -344 0
1064 -2 -5 -281 337 -140 0
1064 -2 -5 -81 134 -345 0
1064 -2 -5 -281 338 -141 0
1064 -2 -5 80 280 81 281 0
1064 -2 -5 -80 -286 0
1064 -2 -5 -80 -287 0
1064 -2 -5 -80 -288 0
1064 -2 -5 -80 -289 0
1064 -2 -5 -80 -290 0
1064 -2 -5 -80 -291 0
1064 -2 -5 -80 -292 0
1064 -2 -5 -80 -293 0
1064 -2 -5 -80 -294 0
1064 -2 -5 -80 -295 0
1064 -2 -5 -80 -296 0
1064 -2 -5 -80 -297 0
1064 -2 -5 -80 -298 0
1064 -2 -5 -80 -299 0
1064 -2 -5 -80 -300 0
1064 -2 -5 -80 -301 0
1064 -2 -5 -80 -302 0
1064 -2 -5 -80 -303 0
1064 -2 -5 -80 -304 0
1064 -2 -5 -80 -305 0
1064 -2 -5 -80 -306 0
1064 -2 -5 -80 -307 0
1064 -2 -5 -80 -308 0
1064 -2 -5 -80 -309 0
1064 -2 -5 -80 -310 0
1064 -2 -5 -280 -82 0
1064 -2 -5 -280 -83 0
1064 -2 -5 -280 -84 0
1064 -2 -5 -280 -85 0
1064 -2 -5 -280 -86 0
1064 -2 -5 -280 -87 0
1064 -2 -5 -280 -88 0
1064 -2 -5 -280 -89 0
1064 -2 -5 -280 -90 0
1064 -2 -5 -280 -91 0
1064 -2 -5 -280 -92 0
1064 -2 -5 -280 -93 0
1064 -2 -5 -280 -94 0
1064 -2 -5 -280 -95 0
1064 -2 -5 -280 -96 0
1064 -2 -5 -280 -97 0
1064 -2 -5 -280 -98 0
1064 -2 -5 -280 -99 0
1064 -2 -5 -280 -100 0
1064 -2 -5 -280 -101 0
1064 -2 -5 -280 -102 0
1064 -2 -5 -280 -103 0
1064 -2 -5 -280 -104 0
1064 -2 -5 -280 -105 0
1064 -2 -5 -280 -106 0
1064 -2 -5 -280 -107 0
1064 -2 -5 -81 -316 0
1064 -2 -5 -81 -317 0
1064 -2 -5 -81 -318 0
1064 -2 -5 -81 -319 0
1064 -2 -5 -81 -320 0
1064 -2 -5 -81 -321 0
1064 -2 -5 -81 -322 0
1064 -2 -5 -281 -112 0
1064 -2 -5 -281 -113 0
1064 -2 -5 -281 -114 0
1064 -2 -5 -281 -115 0
1064 -2 -5 -281 -116 0
1064 -2 -5 -281 -117 0
1064 -2 -5 -281 -118 0
1064 -2 -5 -80 82 -311 0
1064 -2 -5 -280 286 -108 0
1064 -2 -5 -80 83 -312 0
1064 -2 -5 -280 287 -109 0
1064 -2 -5 -80 84 -313 0
1064 -2 -5 -280 288 -110 0
1064 -2 -5 -80 85 -314 0
1064 -2 -5 -280 289 -111 0
1064 -2 -5 -80 86 -315 0
1064 -2 -5 -81 112 -323 0
1064 -2 -5 -281 316 -119 0
1064 -2 -5 -81 113 -324 0
1064 -2 -5 -281 317 -120 0
1064 -2 -5 -81 114 -325 0
1064 -2 -5 -281 318 -121 0
1064 -2 -5 -81 115 -326 0
1064 -2 -5 -281 319 -122 0
1064 -2 -5 -81 116 -327 0
1064 -2 -5 -281 320 -123 0
1064 -2 -5 -81 117 -328 0
1064 -2 -5 -281 321 -124 0
1064 -2 -5 -81 118 -329 0
1064 -2 -5 -281 322 -125 0
1064 -2 -5 -81 119 -330 0
1064 -2 -5 -281 323 -126 0
1064 -2 -5 -81 120 -331 0
1064 -2 -5 -281 324 -127 0
1064 -2 -5 -81 121 -332 0
1064 -2 -5 -281 325 -128 0
1064 -2 -5 -81 122 -333 0
1064 -2 -5 -281 326 -129 0
1064 -2 -5 -81 123 -334 0
1064 -2 -5 -281 327 -130 0
1064 -2 -5 -81 124 -335 0
1064 -2 -5 -281 328 -131 0
1064 -2 -5 -81 125 -336 0
1064 -2 -5 -281 329 -132 0
1064 -2 -5 -81 126 -337 0
1064 -2 -5 -281 330 -133 0
1064 -2 -5 -81 127 -338 0
1064 -2 -5 -281 331 -134 0
1064 -2 -5 -81 128 -339 0
1064 -2 -5 -281 332 -135 0
1064 -2 -5 -81 129 -340 0
1064 -2 -5 -281 333 -136 0
1064 -2 -5 -81 130 -341 0
1064 -2 -5 -281 334 -137 0
1064 -2 -5 -81 131 -342 0
1064 -2 -5 -281 335 -138 0
1064 -2 -5 -81 132 -343 0
1064 -2 -5 -281 336 -139 0
1064 -2 -5 -81 133 -344 0
1064 -2 -5 -281 337 -140 0
1064 -2 -5 -81 134 -345 0
1064 -2 -5 -281 338 -141 0
1064 -3 -4 147 215 0
1064 -3 -4 -147 -248 0
1064 -3 -4 -147 -249 0
1064 -3 -4 -147 -250 0
1064 -3 -4 -147 -251 0
1064 -3 -4 -147 -252 0
1064 -3 -4 -147 -253 0
1064 -3 -4 -147 -254 0
1064 -3 -4 -147 -255 0
1064 -3 -4 -147 -256 0
1064 -3 -4 -215 -180 0
1064 -3 -4 -215 -181 0
1064 -3 -4 -147 180 -257 0
1064 -3 -4 -215 248 -182 0
1064 -3 -4 -147 181 -258 0
1064 -3 -4 -215 249 -183 0
1064 -3 -4 -147 182 -259 0
1064 -3 -4 -215 250 -184 0
1064 -3 -4 -147 183 -260 0
1064 -3 -4 -215 251 -185 0
1064 -3 -4 -147 184 -261 0
1064 -3 -4 -215 252 -186 0
1064 -3 -4 -147 185 -262 0
1064 -3 -4 -215 253 -187 0
1064 -3 -4 -147 186 -263 0
1064 -3 -4 -215 254 -188 0
1064 -3 -4 -147 187 -264 0
1064 -3 -4 -215 255 -189 0
1064 -3 -4 -147 188 -265 0
1064 -3 -4 -215 256 -190 0
1064 -3 -4 -147 189 -266 0
1064 -3 -4 -215 257 -191 0
1064 -3 -4 -147 190 -267 0
1064 -3 -4 -215 258 -192 0
1064 -3 -4 -147 191 -268 0
1064 -3 -4 -215 259 -193 0
1064 -3 -4 -147 192 -269 0
1064 -3 -4 -215 260 -194 0
1064 -3 -4 -147 193 -270 0
1064 -3 -4 -215 261 -195 0
1064 -3 -4 -147 194 -271 0
1064 -3 -4 -215 262 -196 0
1064 -3 -4 -147 195 -272 0
1064 -3 -4 -215 263 -197 0
1064 -3 -4 -147 196 -273 0
1064 -3 -4 -215 264 -198 0
1064 -3 -4 -147 197 -274 0
1064 -3 -4 -215 265 -199 0
1064 -3 -4 -147 198 -275 0
1064 -3 -4 -215 266 -200 0
1064 -3 -4 -147 199 -276 0
1064 -3 -4 -215 267 -201 0
1064 -3 -4 -147 200 -277 0
1064 -3 -4 -215 268 -202 0
1064 -3 -4 146 214 147 215 0
1064 -3 -4 -146 -218 0
1064 -3 -4 -146 -219 0
1064 -3 -4 -146 -220 0
1064 -3 -4 -146 -221 0
1064 -3 -4 -146 -222 0
1064 -3 -4 -146 -223 0
1064 -3 -4 -146 -224 0
1064 -3 -4 -146 -225 0
1064 -3 -4 -146 -226 0
1064 -3 -4 -146 -227 0
1064 -3 -4 -146 -228 0
1064 -3 -4 -146 -229 0
1064 -3 -4 -146 -230 0
1064 -3 -4 -146 -231 0
1064 -3 -4 -146 -232 0
1064 -3 -4 -146 -233 0
1064 -3 -4 -146 -234 0
1064 -3 -4 -146 -235 0
1064 -3 -4 -146 -236 0
1064 -3 -4 -146 -237 0
1064 -3 -4 -146 -238 0
1064 -3 -4 -146 -239 0
1064 -3 -4 -146 -240 0
1064 -3 -4 -146 -241 0
1064 -3 -4 -146 -242 0
1064 -3 -4 -146 -243 0
1064 -3 -4 -146 -244 0
1064 -3 -4 -214 -150 0
1064 -3 -4 -214 -151 0
1064 -3 -4 -214 -152 0
1064 -3 -4 -214 -153 0
1064 -3 -4 -214 -154 0
1064 -3 -4 -214 -155 0
1064 -3 -4 -214 -156 0
1064 -3 -4 -214 -157 0
1064 -3 -4 -214 -158 0
1064 -3 -4 -214 -159 0
1064 -3 -4 -214 -160 0
1064 -3 -4 -214 -161 0
1064 -3 -4 -214 -162 0
1064 -3 -4 -214 -163 0
1064 -3 -4 -214 -164 0
1064 -3 -4 -214 -165 0
1064 -3 -4 -214 -166 0
1064 -3 -4 -214 -167 0
1064 -3 -4 -214 -168 0
1064 -3 -4 -214 -169 0
1064 -3 -4 -214 -170 0
1064 -3 -4 -214 -171 0
1064 -3 -4 -214 -172 0
1064 -3 -4 -214 -173 0
1064 -3 -4 -214 -174 0
1064 -3 -4 -214 -175 0
1064 -3 -4 -214 -176 0
1064 -3 -4 -214 -177 0
1064 -3 -4 -214 -178 0
1064 -3 -4 -214 -179 0
1064 -3 -4 -147 -248 0
1064 -3 -4 -147 -249 0
1064 -3 -4 -147 -250 0
1064 -3 -4 -147 -251 0
1064 -3 -4 -147 -252 0
1064 -3 -4 -147 -253 0
1064 -3 -4 -147 -254 0
1064 -3 -4 -147 -255 0
1064 -3 -4 -147 -256 0
1064 -3 -4 -215 -180 0
1064 -3 -4 -215 -181 0
1064 -3 -4 -146 150 -245 0
1064 -3 -4 -146 151 -246 0
1064 -3 -4 -146 152 -247 0
1064 -3 -4 -147 180 -257 0
1064 -3 -4 -215 248 -182 0
1064 -3 -4 -147 181 -258 0
1064 -3 -4 -215 249 -183 0
1064 -3 -4 -147 182 -259 0
1064 -3 -4 -215 250 -184 0
1064 -3 -4 -147 183 -260 0
1064 -3 -4 -215 251 -185 0
1064 -3 -4 -147 184 -261 0
1064 -3 -4 -215 252 -186 0
1064 -3 -4 -147 185 -262 0
1064 -3 -4 -215 253 -187 0
1064 -3 -4 -147 186 -263 0
1064 -3 -4 -215 254 -188 0
1064 -3 -4 -147 187 -264 0
1064 -3 -4 -215 255 -189 0
1064 -3 -4 -147 188 -265 0
1064 -3 -4 -215 256 -190 0
1064 -3 -4 -147 189 -266 0
1064 -3 -4 -215 257 -191 0
1064 -3 -4 -147 190 -267 0
1064 -3 -4 -215 258 -192 0
1064 -3 -4 -147 191 -268 0
1064 -3 -4 -215 259 -193 0
1064 -3 -4 -147 192 -269 0
1064 -3 -4 -215 260 -194 0
1064 -3 -4 -147 193 -270 0
1064 -3 -4 -215 261 -195 0
1064 -3 -4 -147 194 -271 0
1064 -3 -4 -215 262 -196 0
1064 -3 -4 -147 195 -272 0
1064 -3 -4 -215 263 -197 0
1064 -3 -4 -147 196 -273 0
1064 -3 -4 -215 264 -198 0
1064 -3 -4 -147 197 -274 0
1064 -3 -4 -215 265 -199 0
1064 -3 -4 -147 198 -275 0
1064 -3 -4 -215 266 -200 0
1064 -3 -4 -147 199 -276 0
1064 -3 -4 -215 267 -201 0
1064 -3 -4 -147 200 -277 0
1064 -3 -4 -215 268 -202 0
1064 -3 -5 149 283 0
1064 -3 -5 -149 -316 0
1064 -3 -5 -149 -317 0
1064 -3 -5 -149 -318 0
1064 -3 -5 -149 -319 0
1064 -3 -5 -149 -320 0
1064 -3 -5 -149 -321 0
1064 -3 -5 -149 -322 0
1064 -3 -5 -149 -323 0
1064 -3 -5 -149 -324 0
1064 -3 -5 -283 -180 0
1064 -3 -5 -283 -181 0
1064 -3 -5 -283 -182 0
1064 -3 -5 -283 -183 0
1064 -3 -5 -283 -184 0
1064 -3 -5 -283 -185 0
1064 -3 -5 -283 -186 0
1064 -3 -5 -149 180 -325 0
1064 -3 -5 -283 316 -187 0
1064 -3 -5 -149 181 -326 0
1064 -3 -5 -283 317 -188 0
1064 -3 -5 -149 182 -327 0
1064 -3 -5 -283 318 -189 0
1064 -3 -5 -149 183 -328 0
1064 -3 -5 -283 319 -190 0
1064 -3 -5 -149 184 -329 0
1064 -3 -5 -283 320 -191 0
1064 -3 -5 -149 185 -330 0
1064 -3 -5 -283 321 -192 0
1064 -3 -5 -149 186 -331 0
1064 -3 -5 -283 322 -193 0
1064 -3 -5 -149 187 -332 0
1064 -3 -5 -283 323 -194 0
1064 -3 -5 -149 188 -333 0
1064 -3 -5 -283 324 -195 0
1064 -3 -5 -149 189 -334 0
1064 -3 -5 -283 325 -196 0
1064 -3 -5 -149 190 -335 0
1064 -3 -5 -283 326 -197 0
1064 -3 -5 -149 191 -336 0
1064 -3 -5 -283 327 -198 0
1064 -3 -5 -149 192 -337 0
1064 -3 -5 -283 328 -199 0
1064 -3 -5 -149 193 -338 0
1064 -3 -5 -283 329 -200 0
1064 -3 -5 -149 194 -339 0
1064 -3 -5 -283 330 -201 0
1064 -3 -5 -149 195 -340 0
1064 -3 -5 -283 331 -202 0
1064 -3 -5 -149 196 -341 0
1064 -3 -5 -283 332 -203 0
1064 -3 -5 -149 197 -342 0
1064 -3 -5 -283 333 -204 0
1064 -3 -5 -149 198 -343 0
1064 -3 -5 -283 334 -205 0
1064 -3 -5 -149 199 -344 0
1064 -3 -5 -283 335 -206 0
1064 -3 -5 -149 200 -345 0
1064 -3 -5 -283 336 -207 0
1064 -3 -5 148 282 149 283 0
1064 -3 -5 -148 -286 0
1064 -3 -5 -148 -287 0
1064 -3 -5 -148 -288 0
1064 -3 -5 -148 -289 0
1064 -3 -5 -148 -290 0
1064 -3 -5 -148 -291 0
1064 -3 -5 -148 -292 0
1064 -3 -5 -148 -293 0
1064 -3 -5 -148 -294 0
1064 -3 -5 -148 -295 0
1064 -3 -5 -148 -296 0
1064 -3 -5 -148 -297 0
1064 -3 -5 -148 -298 0
1064 -3 -5 -148 -299 0
1064 -3 -5 -148 -300 0
1064 -3 -5 -148 -301 0
1064 -3 -5 -148 -302 0
1064 -3 -5 -148 -303 0
1064 -3 -5 -148 -304 0
1064 -3 -5 -148 -305 0
1064 -3 -5 -148 -306 0
1064 -3 -5 -148 -307 0
1064 -3 -5 -148 -308 0
1064 -3 -5 -148 -309 0
1064 -3 -5 -148 -310 0
1064 -3 -5 -148 -311 0
1064 -3 -5 -148 -312 0
1064 -3 -5 -282 -150 0
1064 -3 -5 -282 -151 0
1064 -3 -5 -282 -152 0
1064 -3 -5 -282 -153 0
1064 -3 -5 -282 -154 0
1064 -3 -5 -282 -155 0
1064 -3 -5 -282 -156 0
1064 -3 -5 -282 -157 0
1064 -3 -5 -282 -158 0
1064 -3 -5 -282 -159 0
1064 -3 -5 -282 -160 0
1064 -3 -5 -282 -161 0
1064 -3 -5 -282 -162 0
1064 -3 -5 -282 -163 0
1064 -3 -5 -282 -164 0
1064 -3 -5 -282 -165 0
1064 -3 -5 -282 -166 0
1064 -3 -5 -282 -167 0
1064 -3 -5 -282 -168 0
1064 -3 -5 -282 -169 0
1064 -3 -5 -282 -170 0
1064 -3 -5 -282 -171 0
1064 -3 -5 -282 -172 0
1064 -3 -5 -282 -173 0
1064 -3 -5 -282 -174 0
1064 -3 -5 -282 -175 0
1064 -3 -5 -149 -316 0
1064 -3 -5 -149 -317 0
1064 -3 -5 -149 -318 0
1064 -3 -5 -149 -319 0
1064 -3 -5 -149 -320 0
1064 -3 -5 -149 -321 0
1064 -3 -5 -149 -322 0
1064 -3 -5 -149 -323 0
1064 -3 -5 -149 -324 0
1064 -3 -5 -283 -180 0
1064 -3 -5 -283 -181 0
1064 -3 -5 -283 -182 0
1064 -3 -5 -283 -183 0
1064 -3 -5 -283 -184 0
1064 -3 -5 -283 -185 0
1064 -3 -5 -283 -186 0
1064 -3 -5 -148 150 -313 0
1064 -3 -5 -282 286 -176 0
1064 -3 -5 -148 151 -314 0
1064 -3 -5 -282 287 -177 0
1064 -3 -5 -148 152 -315 0
1064 -3 -5 -282 288 -178 0
1064 -3 -5 -149 180 -325 0
1064 -3 -5 -283 316 -187 0
1064 -3 -5 -149 181 -326 0
1064 -3 -5 -283 317 -188 0
1064 -3 -5 -149 182 -327 0
1064 -3 -5 -283 318 -189 0
1064 -3 -5 -149 183 -328 0
1064 -3 -5 -283 319 -190 0
1064 -3 -5 -149 184 -329 0
1064 -3 -5 -283 320 -191 0
1064 -3 -5 -149 185 -330 0
1064 -3 -5 -283 321 -192 0
1064 -3 -5 -149 186 -331 0
1064 -3 -5 -283 322 -193 0
1064 -3 -5 -149 187 -332 0
1064 -3 -5 -283 323 -194 0
1064 -3 -5 -149 188 -333 0
1064 -3 -5 -283 324 -195 0
1064 -3 -5 -149 189 -334 0
1064 -3 -5 -283 325 -196 0
1064 -3 -5 -149 190 -335 0
1064 -3 -5 -283 326 -197 0
1064 -3 -5 -149 191 -336 0
1064 -3 -5 -283 327 -198 0
1064 -3 -5 -149 192 -337 0
1064 -3 -5 -283 328 -199 0
1064 -3 -5 -149 193 -338 0
1064 -3 -5 -283 329 -200 0
1064 -3 -5 -149 194 -339 0
1064 -3 -5 -283 330 -201 0
1064 -3 -5 -149 195 -340 0
1064 -3 -5 -283 331 -202 0
1064 -3 -5 -149 196 -341 0
1064 -3 -5 -283 332 -203 0
1064 -3 -5 -149 197 -342 0
1064 -3 -5 -283 333 -204 0
1064 -3 -5 -149 198 -343 0
1064 -3 -5 -283 334 -205 0
1064 -3 -5 -149 199 -344 0
1064 -3 -5 -283 335 -206 0
1064 -3 -5 -149 200 -345 0
1064 -3 -5 -283 336 -207 0
1064 -4 -5 217 285 0
1064 -4 -5 -217 -316 0
1064 -4 -5 -217 -317 0
1064 -4 -5 -285 -248 0
1064 -4 -5 -285 -249 0
1064 -4 -5 -285 -250 0
1064 -4 -5 -285 -251 0
1064 -4 -5 -285 -252 0
1064 -4 -5 -285 -253 0
1064 -4 -5 -285 -254 0
1064 -4 -5 -217 248 -318 0
1064 -4 -5 -285 316 -255 0
1064 -4 -5 -217 249 -319 0
1064 -4 -5 -285 317 -256 0
1064 -4 -5 -217 250 -320 0
1064 -4 -5 -285 318 -257 0
1064 -4 -5 -217 251 -321 0
1064 -4 -5 -285 319 -258 0
1064 -4 -5 -217 252 -322 0
1064 -4 -5 -285 320 -259 0
1064 -4 -5 -217 253 -323 0
1064 -4 -5 -285 321 -260 0
1064 -4 -5 -217 254 -324 0
1064 -4 -5 -285 322 -261 0
1064 -4 -5 -217 255 -325 0
1064 -4 -5 -285 323 -262 0
1064 -4 -5 -217 256 -326 0
1064 -4 -5 -285 324 -263 0
1064 -4 -5 -217 257 -327 0
1064 -4 -5 -285 325 -264 0
1064 -4 -5 -217 258 -328 0
1064 -4 -5 -285 326 -265 0
1064 -4 -5 -217 259 -329 0
1064 -4 -5 -285 327 -266 0
1064 -4 -5 -217 260 -330 0
1064 -4 -5 -285 328 -267 0
1064 -4 -5 -217 261 -331 0
1064 -4 -5 -285 329 -268 0
1064 -4 -5 -217 262 -332 0
1064 -4 -5 -285 330 -269 0
1064 -4 -5 -217 263 -333 0
1064 -4 -5 -285 331 -270 0
1064 -4 -5 -217 264 -334 0
1064 -4 -5 -285 332 -271 0
1064 -4 -5 -217 265 -335 0
1064 -4 -5 -285 333 -272 0
1064 -4 -5 -217 266 -336 0
1064 -4 -5 -285 334 -273 0
1064 -4 -5 -217 267 -337 0
1064 -4 -5 -285 335 -274 0
1064 -4 -5 -217 268 -338 0
1064 -4 -5 -285 336 -275 0
1064 -4 -5 -217 269 -339 0
1064 -4 -5 -285 337 -276 0
1064 -4 -5 -217 270 -340 0
1064 -4 -5 -285 338 -277 0
1064 -4 -5 -217 271 -341 0
1064 -4 -5 -217 272 -342 0
1064 -4 -5 -217 273 -343 0
1064 -4 -5 -217 274 -344 0
1064 -4 -5 -217 275 -345 0
1064 -4 -5 284 217 285 0
1064 -4 -5 -284 -218 0
1064 -4 -5 -284 -219 0
1064 -4 -5 -284 -220 0
1064 -4 -5 -284 -221 0
1064 -4 -5 -284 -222 0
1064 -4 -5 -284 -223 0
1064 -4 -5 -284 -224 0
1064 -4 -5 -284 -225 0
1064 -4 -5 -284 -226 0
1064 -4 -5 -284 -227 0
1064 -4 -5 -284 -228 0
1064 -4 -5 -284 -229 0
1064 -4 -5 -284 -230 0
1064 -4 -5 -284 -231 0
1064 -4 -5 -284 -232 0
1064 -4 -5 -284 -233 0
1064 -4 -5 -284 -234 0
1064 -4 -5 -284 -235 0
1064 -4 -5 -284 -236 0
1064 -4 -5 -284 -237 0
1064 -4 -5 -284 -238 0
1064 -4 -5 -284 -239 0
1064 -4 -5 -284 -240 0
1064 -4 -5 -284 -241 0
1064 -4 -5 -284 -242 0
1064 -4 -5 -284 -243 0
1064 -4 -5 -217 -316 0
1064 -4 -5 -217 -317 0
1064 -4 -5 -285 -248 0
1064 -4 -5 -285 -249 0
1064 -4 -5 -285 -250 0
1064 -4 -5 -285 -251 0
1064 -4 -5 -285 -252 0
1064 -4 -5 -285 -253 0
1064 -4 -5 -285 -254 0
1064 -4 -5 -217 248 -318 0
1064 -4 -5 -285 316 -255 0
1064 -4 -5 -217 249 -319 0
1064 -4 -5 -285 317 -256 0
1064 -4 -5 -217 250 -320 0
1064 -4 -5 -285 318 -257 0
1064 -4 -5 -217 251 -321 0
1064 -4 -5 -285 319 -258 0
1064 -4 -5 -217 252 -322 0
1064 -4 -5 -285 320 -259 0
1064 -4 -5 -217 253 -323 0
1064 -4 -5 -285 321 -260 0
1064 -4 -5 -217 254 -324 0
1064 -4 -5 -285 322 -261 0
1064 -4 -5 -217 255 -325 0
1064 -4 -5 -285 323 -262 0
1064 -4 -5 -217 256 -326 0
1064 -4 -5 -285 324 -263 0
1064 -4 -5 -217 257 -327 0
1064 -4 -5 -285 325 -264 0
1064 -4 -5 -217 258 -328 0
1064 -4 -5 -285 326 -265 0
1064 -4 -5 -217 259 -329 0
1064 -4 -5 -285 327 -266 0
1064 -4 -5 -217 260 -330 0
1064 -4 -5 -285 328 -267 0
1064 -4 -5 -217 261 -331 0
1064 -4 -5 -285 329 -268 0
1064 -4 -5 -217 262 -332 0
1064 -4 -5 -285 330 -269 0
1064 -4 -5 -217 263 -333 0
1064 -4 -5 -285 331 -270 0
1064 -4 -5 -217 264 -334 0
1064 -4 -5 -285 332 -271 0
1064 -4 -5 -217 265 -335 0
1064 -4 -5 -285 333 -272 0
1064 -4 -5 -217 266 -336 0
1064 -4 -5 -285 334 -273 0
1064 -4 -5 -217 267 -337 0
1064 -4 -5 -285 335 -274 0
1064 -4 -5 -217 268 -338 0
1064 -4 -5 -285 336 -275 0
1064 -4 -5 -217 269 -339 0
1064 -4 -5 -285 337 -276 0
1064 -4 -5 -217 270 -340 0
1064 -4 -5 -285 338 -277 0
1064 -4 -5 -217 271 -341 0
1064 -4 -5 -217 272 -342 0
1064 -4 -5 -217 273 -343 0
1064 -4 -5 -217 274 -344 0
1064 -4 -5 -217 275 -345 0
1064 43 -1 0
1064 44 -1 0
1064 45 -1 0
1064 46 -1 0
1064 47 -1 0
1064 48 -1 0
1064 49 -1 0
1064 50 -1 0
1064 51 -1 0
1064 52 -1 0
1064 53 -1 0
1064 54 -1 0
1064 55 -1 0
1064 56 -1 0
1064 57 -1 0
1064 58 -1 0
1064 59 -1 0
1064 60 -1 0
1064 61 -1 0
1064 62 -1 0
1064 63 -1 0
1064 64 -1 0
1064 65 -1 0
1064 66 -1 0
1064 67 -1 0
1064 68 -1 0
1064 69 -1 0
1064 70 -1 0
1064 71 -1 0
1064 72 -1 0
1064 73 -1 0
1064 87 -2 0
1064 88 -2 0
1064 89 -2 0
1064 90 -2 0
1064 91 -2 0
1064 92 -2 0
1064 93 -2 0
1064 94 -2 0
1064 95 -2 0
1064 96 -2 0
1064 97 -2 0
1064 98 -2 0
1064 99 -2 0
1064 100 -2 0
1064 101 -2 0
1064 102 -2 0
1064 103 -2 0
1064 104 -2 0
1064 105 -2 0
1064 106 -2 0
1064 107 -2 0
1064 108 -2 0
1064 109 -2 0
1064 110 -2 0
1064 111 -2 0
1064 135 -2 0
1064 136 -2 0
1064 137 -2 0
1064 138 -2 0
1064 139 -2 0
1064 140 -2 0
1064 141 -2 0
1064 153 -3 0
1064 154 -3 0
1064 155 -3 0
1064 156 -3 0
1064 157 -3 0
1064 158 -3 0
1064 159 -3 0
1064 160 -3 0
1064 161 -3 0
1064 162 -3 0
1064 163 -3 0
1064 164 -3 0
1064 165 -3 0
1064 166 -3 0
1064 167 -3 0
1064 168 -3 0
1064 169 -3 0
1064 170 -3 0
1064 171 -3 0
1064 172 -3 0
1064 173 -3 0
1064 174 -3 0
1064 175 -3 0
1064 176 -3 0
1064 177 -3 0
1064 178 -3 0
1064 179 -3 0
1064 201 -3 0
1064 202 -3 0
1064 203 -3 0
1064 204 -3 0
1064 205 -3 0
1064 206 -3 0
1064 207 -3 0
1064 208 -3 0
1064 209 -3 0
1064 218 -4 0
1064 219 -4 0
1064 220 -4 0
1064 221 -4 0
1064 222 -4 0
1064 223 -4 0
1064 224 -4 0
1064 225 -4 0
1064 226 -4 0
1064 227 -4 0
1064 228 -4 0
1064 229 -4 0
1064 230 -4 0
1064 231 -4 0
1064 232 -4 0
1064 233 -4 0
1064 234 -4 0
1064 235 -4 0
1064 236 -4 0
1064 237 -4 0
1064 238 -4 0
1064 239 -4 0
1064 240 -4 0
1064 241 -4 0
1064 242 -4 0
1064 243 -4 0
1064 244 -4 0
1064 245 -4 0
1064 246 -4 0
1064 247 -4 0
1064 276 -4 0
1064 277 -4 0
1064 290 -5 0
1064 291 -5 0
1064 292 -5 0
1064 293 -5 0
1064 294 -5 0
1064 295 -5 0
1064 296 -5 0
1064 297 -5 0
1064 298 -5 0
1064 299 -5 0
1064 300 -5 0
1064 301 -5 0
1064 302 -5 0
1064 303 -5 0
1064 304 -5 0
1064 305 -5 0
1064 306 -5 0
1064 307 -5 0
1064 308 -5 0
1064 309 -5 0
1064 310 -5 0
1064 311 -5 0
1064 312 -5 0
1064 313 -5 0
1064 314 -5 0
1064 315 -5 0
1064 339 -5 0
1064 340 -5 0
1064 341 -5 0
1064 342 -5 0
1064 343 -5 0
1064 344 -5 0
1064 345 -5 0
